Route #1: 1 20 16 37 49 61 36 6 25 1
Route #2: 1 27 44 50 47 1
Route #3: 1 17 14 57 29 12 30 34 1
Route #4: 1 2 53 63 42 35 41 1
Route #5: 1 8 31 18 32 9 22 28 39 55 4 1
Route #6: 1 33 38 10 13 11 51 1
Route #7: 1 62 48 19 15 60 23 56 52 1
Route #8: 1 43 64 3 21 58 24 26 1
Route #9: 1 45 46 59 54 7 40 5 1
cost 1028.6302410298304
